n = 9;
problem =  [|
1,1, 1,2, 1,3, 1,4, 1,5, 0,0,   34|
2,1, 2,2, 2,3, 3,3, 2,4, 0,0,   30|
1,6, 2,5, 2,6, 3,5, 0,0, 0,0,   14|
1,7, 2,7, 3,7, 3,8, 3,9, 0,0,   22|
1,8, 1,9, 2,8, 2,9, 0,0, 0,0,  23|
3,1, 4,1, 0,0, 0,0, 0,0, 0,0,  4|
3,2, 4,2, 0,0, 0,0, 0,0, 0,0,  11|
4,3, 5,3, 0,0, 0,0, 0,0, 0,0,  13|
3,4, 4,4, 0,0, 0,0, 0,0, 0,0,  6|
3,6, 4,6, 5,6, 4,5, 4,7, 0,0, 25|
4,8, 4,9, 5,7, 5,8, 0,0,  0,0,17|
5,1, 6,1, 5,2, 6,2, 0,0, 0,0, 19|
6,3, 6,4, 7,4, 0,0, 0,0, 0,0, 11|
5,4, 5,5, 6,5, 0,0, 0,0, 0,0, 19|
6,6, 6,7, 0,0, 0,0, 0,0, 0,0,  16|
5,9, 6,9, 7,9, 8,9, 9,9, 0,0,  24|
6,8, 7,8, 8,8, 9,8, 7,7, 0,0, 24|
8,6, 8,7, 0,0, 0,0, 0,0, 0,0,  8|
9,6, 9,7, 0,0, 0,0, 0,0,0,0,  15|
7,5, 7,6, 0,0, 0,0, 0,0,0,0,  11|
8,4, 8,5, 9,4, 9,5, 0,0, 0,0,14|
7,1, 7,2, 7,3, 8,2, 8,3, 9,3, 33|
8,1, 9,1, 9,2, 0,0, 0,0, 0,0,  12
|];


    
    
  